NAME: random17
TYPE: TSP
DIMENSION: 17
EDGE_WEIGHT_TYPE: EXPLICIT
EDGE_WEIGHT_FORMAT: FULL_MATRIX
EDGE_WEIGHT_SECTION
0 109 109 109 31 109 109 27 27 31 3 109 109 109 109 109 109
109 0 109 109 33 109 109 109 109 109 109 109 24 4 109 109 38
109 109 0 17 109 62 23 109 24 109 109 41 109 109 37 109 109
109 109 17 0 109 109 109 109 9 33 109 109 109 109 29 109 109
31 33 109 109 0 109 109 29 109 45 109 109 44 32 109 109 109
109 109 62 109 109 0 82 109 109 109 109 109 109 79 33 109 38
109 109 23 109 109 82 0 109 109 109 109 48 109 109 109 67 109
27 109 109 109 29 109 109 0 109 109 26 109 109 109 109 23 109
27 109 24 9 109 109 109 109 0 32 26 25 109 109 109 109 109
31 109 109 33 45 109 109 109 32 0 109 109 15 109 23 109 22
3 109 109 109 109 109 109 26 26 109 0 25 109 109 109 29 109
109 109 41 109 109 109 48 109 25 109 25 0 109 109 109 20 109
109 24 109 109 44 109 109 109 109 15 109 109 0 109 109 109 16
109 4 109 109 32 79 109 109 109 109 109 109 109 0 109 109 42
109 109 37 29 109 33 109 109 109 23 109 109 109 109 0 109 26
109 109 109 109 109 109 67 23 109 109 29 20 109 109 109 0 109
109 38 109 109 109 38 109 109 109 22 109 109 16 42 26 109 0
EOF
